
Gurobi 7.5.2 (linux64) logging started Sun Jan  3 00:09:03 2021

Changed value of parameter LogFile to /home/aniket/python_scripts/Plasmids-Optimization/exp/2019-05-07__iterative_MILP_unweighted/feasibility_check/sample_11/1.1.1/nplasmids_1/MILP/m.log
   Prev: gurobi.log  Default: 
Changed value of parameter TimeLimit to 2400.0
   Prev: 1e+100  Min: 0.0  Max: 1e+100  Default: 1e+100

Gurobi 7.5.2 (linux64) logging started Sun Jan  3 00:10:00 2021

Changed value of parameter LogFile to /home/aniket/python_scripts/Plasmids-Optimization/exp/2019-05-07__iterative_MILP_unweighted/feasibility_check/sample_11/1.1.1/nplasmids_1/MILP/m.log
   Prev: gurobi.log  Default: 
Changed value of parameter TimeLimit to 2400.0
   Prev: 1e+100  Min: 0.0  Max: 1e+100  Default: 1e+100
Optimize a model with 2538 rows, 1153 columns and 4588 nonzeros
Variable types: 431 continuous, 722 integer (292 binary)
Coefficient statistics:
  Matrix range     [1e-02, 7e+05]
  Objective range  [6e-03, 1e+00]
  Bounds range     [1e+00, 1e+00]
  RHS range        [9e-01, 2e+05]
Presolve removed 1349 rows and 517 columns
Presolve time: 0.00s

Explored 0 nodes (0 simplex iterations) in 0.00 seconds
Thread count was 1 (of 4 available processors)

Solution count 0

Model is infeasible or unbounded
Best objective -, best bound -, gap -
Presolve removed 1349 rows and 517 columns
Presolve time: 0.00s

Explored 0 nodes (0 simplex iterations) in 0.00 seconds
Thread count was 1 (of 4 available processors)

Solution count 0

Model is infeasible
Best objective -, best bound -, gap -

Computing Irreducible Inconsistent Subsystem (IIS)...

      Constraints           Bounds       Runtime
     Min       Max       Min      Max
------------------------------------------------
        0     2160         0      861         0s
      122      122        51       51         0s

IIS computed: 122 constraints, 51 bounds
IIS runtime: 0.16 seconds
Warning: linear constraint 0 and linear constraint 1 have the same name "counted_length"
